Gurobi Optimizer version 9.1.2 build v9.1.2rc0 (linux64)
Thread count: 36 physical cores, 72 logical processors, using up to 32 threads
Optimize a model with 12 rows, 57 columns and 590 nonzeros
Model fingerprint: 0xf32eec78
Model has 47 quadratic constraints
Coefficient statistics:
  Matrix range     [2e-05, 3e+00]
  QMatrix range    [1e+00, 1e+00]
  QLMatrix range   [1e+00, 1e+00]
  Objective range  [8e-03, 7e-01]
  Bounds range     [1e+00, 1e+00]
  RHS range        [1e+00, 1e+00]
Presolve removed 9 rows and 0 columns

Continuous model is non-convex -- solving as a MIP.

Presolve removed 9 rows and 0 columns
Presolve time: 0.00s
Presolved: 189 rows, 57 columns, 443 nonzeros
Presolved model has 47 bilinear constraint(s)
Variable types: 57 continuous, 0 integer (0 binary)

Root relaxation: objective -1.743721e+00, 44 iterations, 0.00 seconds

    Nodes    |    Current Node    |     Objective Bounds      |     Work
 Expl Unexpl |  Obj  Depth IntInf | Incumbent    BestBd   Gap | It/Node Time

     0     0   -1.74372    0   38          -   -1.74372      -     -    0s
H    0     0                       0.6147548   -1.74372   384%     -    0s
     0     0   -1.64739    0    1    0.61475   -1.64739   368%     -    0s
H    0     0                      -1.6450460   -1.64739  0.14%     -    0s
     0     0     cutoff    0        -1.64505   -1.64505  0.00%     -    0s

Cutting planes:
  RLT: 25
  BQP: 3

Explored 1 nodes (76 simplex iterations) in 0.01 seconds
Thread count was 32 (of 72 available processors)

Solution count 2: -1.64505 0.614755 
No other solutions better than -1.64505

Optimal solution found (tolerance 1.00e-04)
Best objective -1.645045978473e+00, best bound -1.645045978473e+00, gap 0.0000%

User-callback calls 78, time in user-callback 0.00 sec
Gurobi Optimizer version 9.1.2 build v9.1.2rc0 (linux64)
Thread count: 36 physical cores, 72 logical processors, using up to 32 threads
Optimize a model with 360 rows, 572 columns and 2212 nonzeros
Model fingerprint: 0x25554456
Model has 261 quadratic constraints
Coefficient statistics:
  Matrix range     [1e-03, 8e+00]
  QMatrix range    [1e+00, 1e+00]
  QLMatrix range   [1e+00, 1e+00]
  Objective range  [4e-02, 8e+00]
  Bounds range     [1e+00, 8e+00]
  RHS range        [1e+00, 8e+00]
Presolve removed 5 rows and 0 columns

Continuous model is non-convex -- solving as a MIP.

Presolve removed 47 rows and 41 columns
Presolve time: 0.00s
Presolved: 1357 rows, 531 columns, 4088 nonzeros
Presolved model has 261 bilinear constraint(s)
Variable types: 531 continuous, 0 integer (0 binary)

Root relaxation: objective -6.402648e+02, 272 iterations, 0.00 seconds

    Nodes    |    Current Node    |     Objective Bounds      |     Work
 Expl Unexpl |  Obj  Depth IntInf | Incumbent    BestBd   Gap | It/Node Time

     0     0 -640.26484    0   44          - -640.26484      -     -    0s
     0     0 -640.23127    0   44          - -640.23127      -     -    0s
     0     0 -640.22843    0   44          - -640.22843      -     -    0s
H    0     0                    -597.2088079 -640.22843  7.20%     -    0s
     0     2 -640.22843    0   44 -597.20881 -640.22843  7.20%     -    0s
* 1460  1518              49    -610.3840586 -625.34854  2.45%   4.4    0s
H 1595  1758                    -613.8704268 -625.18808  1.84%   4.3    0s
H 1605  1758                    -615.2236873 -625.18808  1.62%   4.2    0s
H 1695  1758                    -615.6005810 -625.18808  1.56%   4.2    0s
H 1705  1758                    -616.9935158 -625.18808  1.33%   4.2    0s
* 3139  2089              47    -616.9935234 -625.11119  1.32%   4.3    0s
* 3141  2089              46    -616.9935281 -625.11119  1.32%   4.3    0s
* 3142  2089              45    -616.9935338 -625.11119  1.32%   4.3    0s
H 3235  1549                    -618.3376013 -625.11119  1.10%   4.3    0s
H 3235  1471                    -618.5643329 -625.11119  1.06%   4.3    0s
H 6614  2185                    -619.5643920 -624.59953  0.81%   5.0    1s
H 6674  2095                    -619.7595057 -624.59953  0.78%   5.0    1s
* 7141  1920              78    -619.7760475 -624.06779  0.69%   5.0    1s
* 8078  1858              84    -619.7844175 -623.16844  0.55%   5.0    1s
*33283  1771              71    -619.7973985 -620.26761  0.08%   6.4    3s
*33287  1771              72    -619.7974061 -620.26761  0.08%   6.4    3s
*33291  1771              73    -619.7974062 -620.26761  0.08%   6.4    3s
*33294  1771              73    -619.7974075 -620.26761  0.08%   6.4    3s
*33706  1669              74    -619.8016384 -620.22016  0.07%   6.4    3s
*40365   396              78    -619.8018091 -619.99492  0.03%   6.4    4s
*41481   189              75    -619.8019801 -619.90878  0.02%   6.4    4s
*41910   189              78    -619.8025224 -619.90572  0.02%   6.4    4s

Explored 42783 nodes (274744 simplex iterations) in 4.36 seconds
Thread count was 32 (of 72 available processors)

Solution count 10: -619.803 -619.802 -619.802 ... -619.564

Optimal solution found (tolerance 1.00e-04)
Best objective -6.198025224028e+02, best bound -6.198587427417e+02, gap 0.0091%

User-callback calls 86137, time in user-callback 0.02 sec



objective value: -619.8025224028484
objective bound: -619.8587427416537
w_opt: 1-dimensional DenseAxisArray{Float64,1,...} with index sets:
    Dimension 1, [(25, 1, 2), (25, 1, 1), (25, 1, 14), (20, 1, 2), (20, 1, 1), (20, 1, 14), (1, 1, 2), (1, 1, 1), (1, 1, 14), (2, 1, 2)  …  (20, 15, 23), (20, 15, 3), (8, 15, 30), (8, 15, 29), (8, 15, 23), (8, 15, 3), (2, 15, 30), (2, 15, 29), (2, 15, 23), (2, 15, 3)]
And data, a 261-element Vector{Float64}:
 1.2767355431348473
 0.0
 0.0
 0.7227264622442315
 0.0
 0.0
 0.0
 0.0
 0.0
 0.0
 0.0
 0.0
 0.0
 0.0
 0.0
 0.0
 1.7661043953034552
 0.0
 0.0
 1.2338956046965448
 0.0
 0.0
 0.0
 0.0
 0.0
 0.0
 0.0
 0.0
 0.0
 0.33745096844939176
 0.22896712139676056
 0.0
 0.0
 0.0
 0.0
 4.428653426854064
 3.0049284832997842
 0.0
 0.0
 0.0
 0.0
 0.0
 0.0
 0.0
 0.0
 0.0
 0.0
 0.0
 0.0
 1.0237429879292077
 0.4081791347724352
 0.09395279452784631
 0.0
 0.0
 0.0
 0.0
 0.0
 0.0
 0.0
 2.0
 1.0
 0.0
 0.0
 0.0
 0.0
 0.0
 0.0
 0.0
 0.0
 0.0
 0.0
 0.0
 0.0
 0.0
 0.7499039446595241
 2.2497118339785724
 0.0
 0.5806568107201672
 1.7419704321605014
 0.0
 0.0
 0.0
 0.0
 0.0
 0.0
 0.0
 0.0
 0.0
 0.0
 0.0
 0.0
 0.0
 0.6694392446203086
 2.008317733860926
 0.0
 0.0
 0.0
 0.0
 0.0
 0.0
 0.0
 1.3021020864585322
 0.8834793561116572
 0.8144185574298105
 0.0
 0.0
 0.0
 0.0
 0.0
 0.0
 0.0
 0.0
 0.0
 0.0
 0.0
 0.0
 0.0
 0.0
 2.8576402536357475
 2.3473432956315987
 0.0
 0.0
 0.0
 1.534520031348039
 1.2604964193846155
 0.0
 0.0
 0.0
 0.0
 0.0
 0.0
 0.0
 0.0
 0.0
 0.0
 0.0
 0.0
 0.0
 0.0
 0.0
 0.0
 0.0
 0.0
 0.0
 0.0
 0.0
 0.0
 0.0
 0.0
 0.0
 0.0
 0.1057786251058059
 0.0
 0.45158183807955377
 0.225790919039777
 0.0
 0.0
 1.5484181619204462
 0.774209080960223
 0.0
 0.0
 0.0
 0.0
 0.0
 0.0
 0.0
 0.0
 0.0
 0.0
 0.0
 0.0
 0.0
 0.0
 1.5408987598840425
 0.0
 0.0
 0.0
 0.36412839033417765
 0.0
 0.0
 0.0
 0.0
 0.0
 0.0
 0.0
 0.0
 0.0
 0.0
 0.0
 0.0
 0.0
 0.0
 0.0
 0.0
 1.6358716096658223
 1.0
 0.3641283903341779
 0.0
 0.0
 0.0
 0.0
 0.0
 0.0
 0.0
 0.0
 0.0
 1.4024001713367642
 0.7008228437941033
 0.0003772418742791047
 0.5975998286632358
 0.2986391010126468
 0.00016075274664213875
 0.0
 0.0
 0.0
 0.0
 0.0
 0.0
 0.0
 0.0
 0.0
 0.0
 0.0
 0.0
 0.0
 0.6124135225703062
 0.7459021835825326
 0.0
 0.0
 0.0
 0.0
 0.0
 0.0
 0.0
 0.0
 0.0
 0.0
 0.0
 0.0
 0.0
 0.0
 0.0
 0.0
 0.0
 0.0
 0.0
 0.0
 0.0
 0.0
 0.0
 0.0
 0.0
 0.0
 0.0
 0.0
 0.0
 0.0
 2.0
 2.4019760049692773
 0.0
 1.0
x_ij_opt: 1-dimensional DenseAxisArray{Float64,1,...} with index sets:
    Dimension 1, [(43, 30), (43, 22), (43, 6), (44, 22), (45, 30), (45, 29), (45, 28), (45, 24), (45, 23), (40, 29)  …  (5, 7), (5, 14), (6, 4), (6, 3), (1, 14), (1, 10), (1, 23), (1, 1), (3, 2), (3, 1)]
And data, a 116-element Vector{Float64}:
 0.0
 0.45910124011595754
 1.5330654725404667
 0.0
 0.0
 0.0
 1.3875864774296938
 0.0
 0.0
 0.0
 0.0
 0.0
 0.0
 0.0
 0.0
 0.0
 0.0
 0.0
 0.2884196119022784
 0.0
 0.0
 0.0
 0.0
 0.0
 0.0
 0.0
 0.0
 2.0
 0.0
 0.0
 0.0
 0.0
 0.0
 0.0
 0.0
 0.0
 0.0
 0.0
 0.0
 0.0
 0.0
 0.0
 0.0
 0.4669345274595334
 0.0
 0.0
 0.0
 0.0
 0.0
 0.0
 0.0
 0.0
 0.0
 0.0
 0.0
 1.0949728497817799
 0.0
 1.6067438129768097
 0.11652064388834293
 1.894221374894194
 0.0
 0.0
 0.0
 0.0
 6.0
 0.0
 0.0010959020394039065
 0.0
 0.0
 0.7115803880977216
 0.0
 0.0
 0.0
 0.0
 0.0
 0.0
 0.2540978164174674
 0.9762570120707923
 0.0
 0.0
 0.0
 0.0
 0.0
 0.0
 0.0
 0.0
 0.0
 0.0
 0.0
 0.0
 0.0
 0.0
 0.0
 0.0
 0.0
 0.0
 0.0
 0.0005380551932498978
 0.0
 0.0
 0.0
 0.0
 0.0
 0.0
 0.0
 0.5612363345928919
 0.0
 0.0
 0.13994281016869847
 0.0
 0.1366615789485756
 0.0
 0.0
 5.185581442570189
 0.0
 0.0
x_il_opt: 1-dimensional DenseAxisArray{Float64,1,...} with index sets:
    Dimension 1, [(43, 15), (43, 14), (44, 15), (44, 13), (44, 3), (40, 14), (40, 2), (41, 14), (42, 6), (37, 13)  …  (4, 13), (5, 2), (5, 7), (5, 9), (6, 11), (1, 1), (1, 6), (1, 3), (2, 1), (2, 15)]
And data, a 71-element Vector{Float64}:
 0.0
 0.0
 0.0
 2.1036002570051466
 0.5664180898461524
 1.3583157061528388
 0.0
 0.0
 0.0
 0.8963996824225248
 0.0
 3.0000000000000004
 0.0
 0.0
 2.9996157786380966
 0.0
 0.0
 0.0
 5.2049835492673475
 0.0
 0.0
 0.0
 3.0
 0.6773727571193308
 2.3226272428806687
 0.0
 2.7950164507326543
 0.0
 1.9050271502182201
 0.0
 1.2767355431348473
 0.0
 0.0
 0.0
 0.0
 0.0
 0.0
 0.0
 0.7227264622442315
 0.0
 0.0
 0.0
 3.0
 0.0
 0.0
 2.322627242880669
 0.0
 3.0
 0.0
 0.0
 0.0
 0.0
 0.0
 0.0
 1.5258749172294892
 0.0
 0.0
 7.433581910153848
 0.0
 0.0
 0.0
 0.0
 0.0
 0.0
 0.1057786251058059
 0.0
 0.0
 2.6777569784812347
 0.0
 0.0
 5.401976004969278
x_lj_opt: 1-dimensional DenseAxisArray{Float64,1,...} with index sets:
    Dimension 1, [(15, 30), (15, 29), (15, 23), (15, 3), (14, 28), (14, 27), (14, 10), (14, 24), (13, 26), (13, 25)  …  (3, 6), (3, 5), (3, 29), (2, 4), (2, 3), (2, 1), (2, 5), (1, 2), (1, 1), (1, 14)]
And data, a 53-element Vector{Float64}:
 2.0
 2.4019760049692773
 0.0
 1.0
 0.6124135225703062
 0.7459021835825326
 0.0
 0.0
 2.0
 0.9994619448067501
 0.0005379946209212434
 1.6358716096658223
 1.0
 0.3641283903341779
 1.5408987598840425
 0.0
 0.0
 0.0
 0.36412839033417765
 0.0
 0.0
 2.0
 1.0
 0.1057786251058059
 0.0
 0.0
 4.392160284983786
 3.607839715016214
 0.0
 0.0
 1.3021020864585324
 0.8834793561116571
 0.8144185574298105
 2.0
 6.0
 0.0
 2.0
 1.0
 0.0
 0.0
 1.0237429879292077
 0.4081791347724352
 0.09395279452784631
 0.0
 4.766104395303455
 3.233895604696545
 1.7661043953034552
 0.0
 0.0
 1.2338956046965448
 1.9994620053790788
 0.0
 0.0
q_opt: 1-dimensional DenseAxisArray{Float64,1,...} with index sets:
    Dimension 1, [(43, 15), (43, 14), (44, 15), (44, 13), (44, 3), (40, 14), (40, 2), (41, 14), (42, 6), (37, 13)  …  (4, 13), (5, 2), (5, 7), (5, 9), (6, 11), (1, 1), (1, 6), (1, 3), (2, 1), (2, 15)]
And data, a 71-element Vector{Float64}:
  0.0
  0.0
  0.0
  0.7012000856683822
  0.07080226123076903
  1.0
  0.0
  0.0
  0.0
  0.2987999143316179
  0.0
  1.0
  0.0
  0.0
  0.3749519723297621
  0.0
  0.0
  0.0
  0.6506229436584184
  0.0
  0.0
  0.0
  1.0
  0.2257909732858398
  0.2903284053600836
 -5.424606280834965e-8
  0.34937705634158156
  0.0
  1.0
  0.0
  0.6385395369854955
  0.0
  0.0
  0.0
  0.0
  0.0
  0.0
  0.0
  0.3614604630145045
  0.0
  0.0
  0.0
  1.0
  0.0
  0.0
  0.774209080960223
  0.0
  1.0
  0.0
  0.0
  0.0
  0.0
  0.0
  0.0
  1.0
  0.0
  0.0
  0.929197738769231
  0.0
  0.0
  0.0
  0.0
  0.0
  0.0
  1.0
  0.0
  0.0
  0.33471962231015434
  0.0
  0.0
  1.0
GUROBI solution time: 4.361566066741943



